c Source: TUDataset AIDS, graph #1747
c Original: n=10, m=11
c Augmented: +3 edges, n=10 -> m=14, circuit_rank=5
c Augmented to satisfy Eulerian condition (no parallel edges)
p sp 10
e 3 4
e 7 10
e 5 9
e 4 7
e 1 3
e 5 8
e 4 6
e 1 2
e 6 9
e 3 5
e 9 10
e 2 3
e 4 5
e 8 9
